NAME        
OBJSENSE
  MAX
ROWS
 N  Obj     
 L  __c0    
 L  __c1    
 L  __c2    
COLUMNS
    x         Obj       90
    x         __c0      3
    x         __c1      9
    x         __c2      2
    y         Obj       75
    y         __c0      2
    y         __c1      4
    y         __c2      10
RHS
    RHS_V     __c0      66
    RHS_V     __c1      180
    RHS_V     __c2      200
BOUNDS
 LO BOUND     x         2
 UP BOUND     x         8
 LO BOUND     y         10
 UP BOUND     y         40
ENDATA
